126457.0
1170
1 4 8 11 12 14 23 31 39 42 44 46 51 52 57 60 63 69 70 74 75 76 80 82 85 86 87 90 93 95 97 99 101 107 108 109 118 124 125 126 133 135 138 143 145 147 150 154 158 159 165 175 176 178 180 181 182 184 187 188 190 191 198 199 